Minimize
  - 3 y_0 - 3 y_1 - 4 y_2 - 2 y_3 - 4 y_4 - 6 y_5 - 4 y_6 - y_7 - 7 y_8
   - 5 y_9 - 6 y_10 - y_11 - 5 y_12 - 5 y_13 - 4 y_14 - 3 y_15 - 6 y_16
   - 4 y_17 - 6 y_18 - 4 y_19 - 3 y_20 - 4 y_21 - 3 y_22 - 5 y_23 - 6 y_24
   - 6 y_25 - 5 y_26 - 4 y_28 - 3 y_29 - 5 y_30 - 6 y_31 - y_32 - 5 y_33
   - 3 y_34 - 2 y_35 - 5 y_36 - 2 y_37 - 5 y_38 - 5 y_39 - 3 y_40 - y_41
   - 4 y_42 - 5 y_43 - 3 y_44 - 5 y_45 - 4 y_46 - 4 y_47 - 4 y_48 - 4 y_49
   - y_50 - 3 y_51 - 6 y_52 - 3 y_53 - 5 y_54 - 2 y_55 - 4 y_56 - 4 y_57
   - 6 y_58 - 6 y_59 - 3 y_60 - 6 y_61 - 5 y_62 - y_63 - 4 y_64 - 3 y_65
   - 5 y_66 - 5 y_67 - 4 y_68 - 2 y_69 - 4 y_70 - 5 y_71 - y_72 - 6 y_73
   - 6 y_74 - 4 y_75 - 5 y_76 - 4 y_77 - 5 y_78 - 3 y_79 - 3 y_80 - 4 y_81
   - 4 y_82 - 4 y_83 - 2 y_84 - 5 y_85 - 2 y_86 - 3 y_87 - 3 y_88 - 5 y_89
   - 3 y_90 - 5 y_91 - 5 y_92 - y_93 - 5 y_94 - 4 y_95 - 6 y_96 - 6 y_97
   - 4 y_98 - 3 y_99 + 396 Constant
Subject To
 c_0: y_84 = 1
 c_1_0: y_0 + y_60 >= 1
 c_1_1: y_1 + y_15 + y_20 + y_34 + y_77 >= 1
 c_1_2: y_2 + y_14 + y_17 + y_47 + y_68 + y_75 >= 1
 c_1_3: y_3 + y_37 + y_55 + y_69 + y_72 >= 1
 c_1_4: y_4 + y_64 + y_88 + y_95 >= 1
 c_1_5: y_5 + y_8 + y_9 + y_25 >= 1
 c_1_6: y_6 + y_60 + y_81 >= 1
 c_1_7: y_7 + y_32 + y_63 >= 1
 c_1_8: y_5 + y_8 >= 1
 c_1_9: y_5 + y_9 + y_31 + y_43 + y_71 + y_76 >= 1
 c_1_10: y_10 + y_39 >= 1
 c_1_11: y_11 + y_27 + y_41 + y_72 >= 1
 c_1_12: y_12 + y_43 + y_71 + y_76 >= 1
 c_1_13: y_13 + y_36 + y_73 + y_91 >= 1
 c_1_14: y_2 + y_14 + y_17 + y_47 + y_68 + y_75 >= 1
 c_1_15: y_1 + y_15 + y_20 + y_34 + y_37 + y_55 + y_69 >= 1
 c_1_16: y_16 + y_24 + y_97 >= 1
 c_1_17: y_2 + y_14 + y_17 + y_47 + y_68 + y_75 >= 1
 c_1_18: y_18 + y_58 + y_78 >= 1
 c_1_19: y_19 + y_48 + y_77 >= 1
 c_1_20: y_1 + y_15 + y_20 + y_34 + y_37 + y_55 + y_69 >= 1
 c_1_21: y_21 + y_33 + y_46 >= 1
 c_1_22: y_22 + y_29 + y_65 + y_99 >= 1
 c_1_23: y_23 + y_61 + y_94 + y_95 + y_97 >= 1
 c_1_24: y_16 + y_24 + y_97 >= 1
 c_1_25: y_5 + y_25 + y_73 >= 1
 c_1_26: y_26 + y_81 + y_91 >= 1
 c_1_27: y_11 + y_27 + y_32 + y_50 + y_63 >= 1
 c_1_28: y_28 + y_81 + y_91 >= 1
 c_1_29: y_22 + y_29 + y_82 + y_99 >= 1
 c_1_30: y_30 + y_38 + y_39 + y_42 >= 1
 c_1_31: y_9 + y_31 + y_59 + y_71 + y_76 >= 1
 c_1_32: y_7 + y_27 + y_32 + y_50 + y_63 >= 1
 c_1_33: y_21 + y_33 + y_46 + y_62 >= 1
 c_1_34: y_1 + y_15 + y_20 + y_34 + y_77 >= 1
 c_1_35: y_35 >= 1
 c_1_36: y_13 + y_36 + y_73 + y_91 >= 1
 c_1_37: y_3 + y_15 + y_20 + y_37 + y_41 + y_55 + y_69 + y_72 >= 1
 c_1_38: y_30 + y_38 + y_42 >= 1
 c_1_39: y_10 + y_30 + y_39 + y_42 >= 1
 c_1_40: y_40 + y_80 + y_87 + y_88 >= 1
 c_1_41: y_11 + y_37 + y_41 + y_72 >= 1
 c_1_42: y_30 + y_38 + y_39 + y_42 >= 1
 c_1_43: y_9 + y_12 + y_43 + y_59 + y_71 + y_76 >= 1
 c_1_44: y_44 + y_51 + y_84 + y_90 >= 1
 c_1_45: y_45 + y_67 >= 1
 c_1_46: y_21 + y_33 + y_46 >= 1
 c_1_47: y_2 + y_14 + y_17 + y_47 + y_75 >= 1
 c_1_48: y_19 + y_48 + y_77 >= 1
 c_1_49: y_49 + y_66 + y_85 + y_92 >= 1
 c_1_50: y_27 + y_32 + y_50 + y_63 >= 1
 c_1_51: y_44 + y_51 + y_90 + y_98 >= 1
 c_1_52: y_52 + y_96 >= 1
 c_1_53: y_53 + y_70 + y_79 >= 1
 c_1_54: y_54 >= 1
 c_1_55: y_3 + y_15 + y_20 + y_37 + y_55 + y_69 + y_72 >= 1
 c_1_56: y_56 + y_98 >= 1
 c_1_57: y_57 >= 1
 c_1_58: y_18 + y_58 + y_78 >= 1
 c_1_59: y_31 + y_43 + y_59 + y_71 + y_76 >= 1
 c_1_60: y_0 + y_6 + y_60 + y_81 >= 1
 c_1_61: y_23 + y_61 >= 1
 c_1_62: y_33 + y_62 >= 1
 c_1_63: y_7 + y_27 + y_32 + y_50 + y_63 >= 1
 c_1_64: y_4 + y_64 + y_95 >= 1
 c_1_65: y_22 + y_65 + y_83 + y_99 >= 1
 c_1_66: y_49 + y_66 + y_85 + y_92 >= 1
 c_1_67: y_45 + y_67 + y_89 >= 1
 c_1_68: y_2 + y_14 + y_17 + y_68 + y_75 >= 1
 c_1_69: y_3 + y_15 + y_20 + y_37 + y_55 + y_69 >= 1
 c_1_70: y_53 + y_70 >= 1
 c_1_71: y_9 + y_12 + y_31 + y_43 + y_59 + y_71 + y_76 >= 1
 c_1_72: y_3 + y_11 + y_37 + y_41 + y_55 + y_72 >= 1
 c_1_73: y_13 + y_25 + y_36 + y_73 >= 1
 c_1_74: y_74 >= 1
 c_1_75: y_2 + y_14 + y_17 + y_47 + y_68 + y_75 >= 1
 c_1_76: y_9 + y_12 + y_31 + y_43 + y_59 + y_71 + y_76 >= 1
 c_1_77: y_1 + y_19 + y_34 + y_48 + y_77 >= 1
 c_1_78: y_18 + y_58 + y_78 >= 1
 c_1_79: y_53 + y_79 >= 1
 c_1_80: y_40 + y_80 + y_87 + y_88 >= 1
 c_1_81: y_6 + y_26 + y_28 + y_60 + y_81 >= 1
 c_1_82: y_29 + y_82 >= 1
 c_1_83: y_65 + y_83 + y_99 >= 1
 c_1_84: y_44 + y_84 >= 1
 c_1_85: y_49 + y_66 + y_85 >= 1
 c_1_86: y_86 >= 1
 c_1_87: y_40 + y_80 + y_87 + y_88 >= 1
 c_1_88: y_4 + y_40 + y_80 + y_87 + y_88 >= 1
 c_1_89: y_67 + y_89 >= 1
 c_1_90: y_44 + y_51 + y_90 >= 1
 c_1_91: y_13 + y_26 + y_28 + y_36 + y_91 >= 1
 c_1_92: y_49 + y_66 + y_92 >= 1
 c_1_93: y_93 >= 1
 c_1_94: y_23 + y_94 + y_95 >= 1
 c_1_95: y_4 + y_23 + y_64 + y_94 + y_95 >= 1
 c_1_96: y_52 + y_96 >= 1
 c_1_97: y_16 + y_23 + y_24 + y_97 >= 1
 c_1_98: y_51 + y_56 + y_98 >= 1
 c_1_99: y_22 + y_29 + y_65 + y_83 + y_99 >= 1
Bounds
 Constant = 1
Binaries
 y_0 y_1 y_2 y_3 y_4 y_5 y_6 y_7 y_8 y_9 y_10 y_11 y_12 y_13 y_14 y_15 y_16
 y_17 y_18 y_19 y_20 y_21 y_22 y_23 y_24 y_25 y_26 y_27 y_28 y_29 y_30 y_31
 y_32 y_33 y_34 y_35 y_36 y_37 y_38 y_39 y_40 y_41 y_42 y_43 y_44 y_45 y_46
 y_47 y_48 y_49 y_50 y_51 y_52 y_53 y_54 y_55 y_56 y_57 y_58 y_59 y_60 y_61
 y_62 y_63 y_64 y_65 y_66 y_67 y_68 y_69 y_70 y_71 y_72 y_73 y_74 y_75 y_76
 y_77 y_78 y_79 y_80 y_81 y_82 y_83 y_84 y_85 y_86 y_87 y_88 y_89 y_90 y_91
 y_92 y_93 y_94 y_95 y_96 y_97 y_98 y_99
End
